\ Model BinPackProb
\ LP format - for model browsing. Use MPS format to capture full model detail.
Minimize
  G[0] + G[1] + G[2] + G[3] + G[4]
Subject To
 Assignment[18]: C[0,18] + C[1,18] + C[2,18] + C[3,18] + C[4,18] = 1
 Assignment[27]: C[0,27] + C[1,27] + C[2,27] + C[3,27] + C[4,27] = 1
 Assignment[8]: C[0,8] + C[1,8] + C[2,8] + C[3,8] + C[4,8] = 1
 Assignment[46]: C[0,46] + C[1,46] + C[2,46] + C[3,46] + C[4,46] = 1
 Assignment[4]: C[0,4] + C[1,4] + C[2,4] + C[3,4] + C[4,4] = 1
 Assignment[17]: C[0,17] + C[1,17] + C[2,17] + C[3,17] + C[4,17] = 1
 Assignment[43]: C[0,43] + C[1,43] + C[2,43] + C[3,43] + C[4,43] = 1
 Assignment[9]: C[0,9] + C[1,9] + C[2,9] + C[3,9] + C[4,9] = 1
 Assignment[15]: C[0,15] + C[1,15] + C[2,15] + C[3,15] + C[4,15] = 1
 Assignment[40]: C[0,40] + C[1,40] + C[2,40] + C[3,40] + C[4,40] = 1
 Assignment[11]: C[0,11] + C[1,11] + C[2,11] + C[3,11] + C[4,11] = 1
 Assignment[0]: C[0,0] + C[1,0] + C[2,0] + C[3,0] + C[4,0] = 1
 Capacity[0]: - 10 G[0] + 0.5 C[0,18] + 1.4 C[0,27] + 4.5 C[0,8]
   + 3.4 C[0,46] + 9.1 C[0,4] + 2.4 C[0,17] + 5.6 C[0,43] + 5.1 C[0,9]
   + 3.2 C[0,15] + C[0,40] + 0.1 C[0,11] + 3.4 C[0,0] <= 0
 Capacity[1]: - 10 G[1] + 0.5 C[1,18] + 1.4 C[1,27] + 4.5 C[1,8]
   + 3.4 C[1,46] + 9.1 C[1,4] + 2.4 C[1,17] + 5.6 C[1,43] + 5.1 C[1,9]
   + 3.2 C[1,15] + C[1,40] + 0.1 C[1,11] + 3.4 C[1,0] <= 0
 Capacity[2]: - 10 G[2] + 0.5 C[2,18] + 1.4 C[2,27] + 4.5 C[2,8]
   + 3.4 C[2,46] + 9.1 C[2,4] + 2.4 C[2,17] + 5.6 C[2,43] + 5.1 C[2,9]
   + 3.2 C[2,15] + C[2,40] + 0.1 C[2,11] + 3.4 C[2,0] <= 0
 Capacity[3]: - 10 G[3] + 0.5 C[3,18] + 1.4 C[3,27] + 4.5 C[3,8]
   + 3.4 C[3,46] + 9.1 C[3,4] + 2.4 C[3,17] + 5.6 C[3,43] + 5.1 C[3,9]
   + 3.2 C[3,15] + C[3,40] + 0.1 C[3,11] + 3.4 C[3,0] <= 0
 Capacity[4]: - 10 G[4] + 0.5 C[4,18] + 1.4 C[4,27] + 4.5 C[4,8]
   + 3.4 C[4,46] + 9.1 C[4,4] + 2.4 C[4,17] + 5.6 C[4,43] + 5.1 C[4,9]
   + 3.2 C[4,15] + C[4,40] + 0.1 C[4,11] + 3.4 C[4,0] <= 0
 Sorting[1]: - G[0] + G[1] <= 0
 Sorting[2]: - G[1] + G[2] <= 0
 Sorting[3]: - G[2] + G[3] <= 0
 Sorting[4]: - G[3] + G[4] <= 0
Bounds
Binaries
 G[0] G[1] G[2] G[3] G[4] C[0,18] C[0,27] C[0,8] C[0,46] C[0,4] C[0,17]
 C[0,43] C[0,9] C[0,15] C[0,40] C[0,11] C[0,0] C[1,18] C[1,27] C[1,8]
 C[1,46] C[1,4] C[1,17] C[1,43] C[1,9] C[1,15] C[1,40] C[1,11] C[1,0]
 C[2,18] C[2,27] C[2,8] C[2,46] C[2,4] C[2,17] C[2,43] C[2,9] C[2,15]
 C[2,40] C[2,11] C[2,0] C[3,18] C[3,27] C[3,8] C[3,46] C[3,4] C[3,17]
 C[3,43] C[3,9] C[3,15] C[3,40] C[3,11] C[3,0] C[4,18] C[4,27] C[4,8]
 C[4,46] C[4,4] C[4,17] C[4,43] C[4,9] C[4,15] C[4,40] C[4,11] C[4,0]
End
